65 12 79 8 3 43 80 
51 85 57 74 91 
71 38 94 32 
83 52 16 9 53 13 
45 7 73 56 
31 67 50 84 96 54 
39 36 44 40 81 1 
63 19 21 23 20 66 68 
5 11 78 4 60 
27 29 76 49 77 
47 15 98 90 37 35 
69 82 30 34 26 
87 59 75 58 100 
72 61 41 46 93 
42 2 6 97 
14 99 86 18 25 48 
88 17 10 70 
92 64 95 62 22 24 89 
33 28 55 

